\ENCODING=ISO-8859-1
\Problem name: IloCplex

Minimize
 obj1: 29.3850006103516 x1 + 29.3850006103516 x2 + 29.3850006103516 x3
       + 29.3850006103516 x4 + 29.3850006103516 x5 + 29.3850006103516 x6
       + 29.3850006103516 x7 + 29.3850006103516 x8 + 29.3850006103516 x9
       + 29.3850006103516 x10
Subject To
 c1:  x1 >= 427749.980986118
 c2:   = 725000
 c3:  x2 >= 427749.980986118
 c4:   = 725000
 c5:  x3 >= 427749.980986118
 c6:   = 725000
 c7:  x4 >= 427749.980986118
 c8:   = 725000
 c9:  x5 >= 427749.980986118
 c10:  = 725000
 c11: x6 >= 427749.980986118
 c12:  = 725000
 c13: x7 >= 427749.980986118
 c14:  = 725000
 c15: x8 >= 427749.980986118
 c16:  = 725000
 c17: x9 >= 427749.980986118
 c18:  = 725000
 c19: x10 >= 427749.980986118
 c20:  = 725000
End
